1 31 31
2 81 0
3 85 0
4 64 0
5 30 0
6 9 0
7 13 0
8 1 1
9 36 0
10 45 0
11 70 0
12 41 0
13 47 0
14 1 0
15 43 0
16 11 0
17 2 0
18 57 0
19 46 0
20 17 0
21 74 0
22 2 0
23 25 0
24 2 2
25 42 0
26 45 0
27 13 0
28 2 2
29 67 0
30 31 0
31 84 84
32 30 0
33 6 0
34 2 2
35 1 0
36 58 0
37 47 0
38 47 0
39 64 0
40 27 0
41 20 0
42 65 0
43 3 0
44 1 0
45 4 0
46 83 0
47 70 0
48 5 5
49 49 0
50 47 47
51 79 0
52 6 0
53 81 0
54 31 0
55 42 0
56 21 0
57 2 0
58 2 2
59 84 84
60 6 0
61 80 0
62 26 0
63 61 0
64 7 0
65 26 0
66 84 0
67 31 0
68 4 0
69 59 0
70 1 0
71 86 0
72 45 0
73 8 0
74 72 0
75 20 0
76 74 0
77 9 0
78 64 0
79 10 0
80 45 0
81 31 0
82 83 0
83 11 0
84 47 0
85 36 0
86 74 0
87 76 0
88 51 0
89 59 0
90 5 0
91 83 0
92 24 0
93 49 0
94 11 0
95 25 25
96 26 0
97 31 31
98 70 0
99 46 0
100 31 0
101 13 0
102 74 0
103 51 0
104 47 47
105 80 0
106 42 0
107 25 0
108 45 0
109 26 0
110 1 0
111 31 0
112 1 0
113 12 0
114 3 0
115 41 0
116 2 0
117 13 0
118 1 1
119 74 0
120 64 0
121 25 0
122 71 0
123 65 0
124 18 0
125 31 0
126 14 0
127 60 0
128 41 0
129 52 0
130 47 0
131 41 41
132 33 0
133 84 84
134 41 0
135 45 0
136 80 0
137 39 0
138 7 0
139 1 0
140 47 0
141 80 0
142 84 84
143 47 47
144 65 0
145 1 0
146 30 0
147 30 0
148 5 0
149 26 0
150 31 0
151 59 0
152 51 0
153 42 0
154 29 0
155 61 0
156 31 0
157 29 0
158 58 0
159 31 0
160 2 0
161 67 0
162 79 0
163 67 0
164 67 0
165 5 0
166 36 0
167 84 0
168 15 0
169 42 0
170 59 0
171 74 0
172 45 0
173 42 0
174 16 0
175 31 0
176 27 0
177 57 0
178 79 0
179 27 0
180 70 0
181 64 0
182 31 0
183 20 0
184 80 80
185 47 0
186 31 0
187 30 0
188 84 0
189 15 0
190 21 0
191 69 0
192 36 0
193 17 0
194 84 0
195 36 0
196 65 0
197 31 31
198 1 0
199 63 0
200 84 84
201 76 0
202 42 0
203 1 0
204 45 0
205 84 84
206 70 0
207 25 25
208 25 25
209 62 0
210 31 31
211 1 0
212 3 0
213 15 0
214 31 0
215 53 0
216 59 0
217 36 0
218 20 0
219 51 0
220 37 0
221 80 0
222 84 0
223 36 0
224 18 0
225 27 0
226 61 0
227 65 0
228 25 0
229 15 0
230 19 0
231 36 0
232 43 0
233 36 0
234 25 25
235 13 0
236 1 0
237 86 0
238 42 0
239 13 0
240 70 0
241 26 0
242 47 47
243 83 0
244 86 0
245 47 0
246 41 0
247 70 0
248 2 0
249 74 0
250 31 31
251 31 0
252 31 31
253 2 0
254 20 0
255 21 0
256 84 84
257 25 25
258 64 0
259 25 0
260 24 0
261 41 0
262 70 0
263 49 0
264 14 0
265 22 0
266 23 0
267 65 0
268 31 31
269 57 0
270 24 0
271 29 0
272 20 0
273 70 0
274 57 0
275 2 0
276 47 47
277 1 0
278 38 0
279 57 0
280 25 25
281 9 0
282 1 0
283 80 0
284 45 0
285 26 0
286 26 0
287 13 0
288 57 0
289 31 0
290 36 0
291 27 0
292 11 0
293 13 0
294 17 0
295 80 0
296 72 0
297 28 0
298 47 0
299 2 0
300 70 0
301 29 0
302 59 0
303 30 0
304 80 0
305 9 0
306 21 0
307 63 0
308 47 0
309 42 0
310 47 0
311 26 0
312 3 0
313 83 0
314 67 0
315 70 0
316 84 84
317 79 0
318 84 0
319 59 0
320 80 0
321 36 0
322 49 0
323 24 0
324 21 0
325 42 0
326 31 0
327 59 0
328 31 0
329 84 0
330 31 31
331 47 0
332 32 0
333 41 41
334 42 0
335 15 0
336 26 0
337 1 0
338 13 0
339 61 0
340 65 0
341 80 0
342 30 0
343 42 0
344 31 0
345 57 0
346 47 47
347 37 0
348 86 0
349 41 0
350 79 0
351 11 0
352 33 0
353 1 0
354 31 0
355 30 0
356 86 0
357 34 0
358 63 0
359 45 0
360 9 0
361 60 0
362 35 0
363 42 0
364 36 0
365 2 0
366 45 0
367 47 47
368 64 0
369 31 0
370 67 0
371 36 0
372 67 0
373 47 0
374 47 0
375 3 0
376 74 0
377 47 47
378 37 0
379 1 1
380 70 0
381 5 0
382 11 0
383 84 0
384 78 0
385 21 0
386 31 0
387 21 0
388 44 0
389 15 0
390 52 0
391 57 0
392 38 0
393 27 0
394 65 0
395 1 0
396 30 0
397 1 0
398 31 31
399 60 0
400 86 0
401 1 0
402 25 25
403 70 0
404 60 0
405 45 0
406 84 0
407 60 0
408 59 0
409 1 0
410 1 0
411 86 0
412 30 0
413 25 25
414 39 0
415 45 0
416 17 0
417 7 0
418 40 0
419 5 5
420 31 0
421 46 0
422 21 0
423 84 0
424 15 0
425 3 0
426 20 0
427 61 0
428 47 0
429 47 0
430 4 0
431 41 41
432 29 0
433 80 0
434 47 0
435 26 0
436 84 0
437 47 47
438 31 0
439 86 0
440 84 0
441 86 0
442 5 0
443 57 0
444 25 25
445 64 0
446 59 0
447 15 0
448 13 0
449 20 0
450 60 0
451 26 0
452 31 0
453 4 0
454 11 0
455 41 0
456 42 42
457 31 31
458 45 0
459 82 0
460 47 47
461 80 0
462 83 0
463 31 31
464 6 0
465 25 0
466 2 2
467 36 0
468 26 0
469 37 0
470 64 0
471 84 84
472 47 47
473 5 0
474 7 0
475 41 0
476 43 0
477 44 0
478 45 0
479 47 0
480 67 0
481 20 0
482 60 0
483 31 0
484 77 0
485 83 0
486 46 0
487 47 0
488 20 0
489 47 47
490 41 0
491 14 0
492 1 0
493 84 0
494 11 0
495 30 0
496 7 0
497 76 0
498 9 0
499 4 0
500 2 0
501 85 0
502 3 0
503 70 0
504 41 41
505 36 0
506 28 0
507 48 0
508 27 0
509 36 0
510 27 0
511 25 0
512 31 0
513 78 0
514 15 0
515 25 0
516 25 0
517 71 0
518 34 0
519 1 0
520 49 0
521 80 0
522 57 0
523 6 0
524 25 25
525 59 59
526 59 0
527 12 0
528 2 0
529 57 0
530 70 0
531 47 0
532 50 0
533 25 25
534 86 0
535 11 0
536 15 0
537 26 0
538 49 0
539 1 0
540 65 0
541 25 0
542 21 0
543 25 0
544 51 0
545 31 0
546 86 0
547 9 0
548 29 0
549 83 0
550 27 0
551 15 0
552 84 0
553 80 0
554 42 0
555 64 0
556 52 0
557 84 0
558 71 0
559 29 0
560 47 47
561 47 0
562 47 47
563 53 0
564 83 0
565 47 47
566 86 0
567 47 47
568 1 0
569 14 0
570 64 0
571 36 0
572 86 0
573 86 0
574 52 0
575 43 0
576 61 0
577 69 0
578 26 0
579 31 0
580 47 47
581 5 0
582 45 0
583 15 0
584 31 0
585 59 0
586 47 0
587 54 0
588 55 0
589 12 0
590 1 0
591 56 0
592 64 0
593 9 0
594 84 84
595 78 0
596 57 0
597 47 0
598 31 0
599 57 0
600 42 0
601 57 0
602 31 31
603 25 25
604 63 0
605 31 0
606 37 0
607 41 0
608 11 0
609 30 0
610 30 0
611 42 0
612 60 0
613 42 0
614 25 0
615 47 47
616 57 0
617 29 0
618 25 25
619 9 0
620 18 0
621 5 0
622 24 0
623 70 0
624 14 0
625 30 0
626 61 0
627 80 0
628 80 0
629 42 0
630 9 0
631 5 5
632 47 47
633 25 0
634 41 0
635 21 0
636 17 0
637 59 0
638 25 25
639 74 0
640 86 0
641 43 0
642 84 0
643 41 0
644 7 0
645 58 0
646 56 0
647 65 0
648 41 41
649 84 0
650 9 0
651 14 0
652 59 59
653 60 0
654 31 0
655 30 0
656 47 0
657 60 0
658 15 0
659 39 0
660 42 0
661 47 0
662 31 0
663 7 0
664 42 0
665 61 0
666 25 25
667 83 0
668 1 0
669 84 84
670 42 0
671 74 0
672 9 0
673 42 0
674 59 0
675 84 0
676 37 0
677 31 0
678 13 0
679 59 0
680 80 0
681 59 0
682 62 0
683 70 0
684 47 0
685 47 0
686 31 0
687 41 41
688 66 0
689 30 0
690 41 41
691 57 0
692 63 0
693 80 0
694 61 0
695 57 0
696 80 0
697 80 0
698 4 0
699 71 0
700 64 0
701 42 0
702 27 0
703 42 0
704 60 0
705 81 0
706 47 0
707 31 0
708 13 0
709 47 47
710 17 0
711 65 0
712 30 0
713 59 0
714 13 0
715 76 0
716 42 0
717 47 0
718 41 0
719 30 0
720 30 0
721 1 0
722 41 0
723 55 0
724 67 0
725 64 0
726 74 0
727 31 0
728 21 0
729 25 25
730 30 0
731 26 0
732 80 0
733 57 0
734 25 25
735 15 0
736 47 0
737 41 0
738 61 0
739 2 2
740 83 0
741 65 0
742 61 0
743 54 0
744 41 0
745 31 31
746 47 47
747 4 0
748 25 0
749 70 0
750 1 0
751 36 0
752 20 0
753 59 59
754 85 0
755 60 0
756 42 0
757 47 0
758 59 59
759 60 0
760 84 0
761 26 0
762 1 1
763 5 0
764 13 0
765 31 31
766 59 59
767 84 84
768 25 25
769 51 0
770 31 0
771 60 0
772 59 0
773 61 0
774 30 0
775 25 0
776 59 0
777 3 0
778 59 0
779 47 47
780 13 0
781 30 0
782 58 0
783 57 0
784 83 0
785 2 2
786 29 0
787 26 0
788 27 0
789 45 0
790 2 2
791 31 0
792 31 0
793 66 0
794 37 0
795 27 0
796 45 0
797 67 0
798 9 0
799 60 0
800 68 0
801 67 0
802 45 0
803 80 0
804 79 0
805 83 0
806 59 59
807 29 0
808 47 47
809 84 0
810 64 0
811 80 0
812 31 0
813 25 0
814 47 47
815 30 0
816 47 47
817 2 0
818 42 0
819 31 31
820 41 41
821 60 0
822 1 0
823 61 0
824 30 0
825 47 0
826 26 0
827 47 47
828 45 0
829 20 0
830 86 0
831 41 0
832 84 0
833 25 0
834 48 0
835 27 0
836 25 0
837 25 0
838 25 0
839 84 0
840 69 0
841 3 0
842 15 0
843 65 0
844 65 0
845 11 0
846 20 0
847 9 0
848 13 0
849 80 0
850 77 0
851 2 0
852 83 0
853 64 0
854 57 0
855 84 0
856 59 0
857 25 0
858 36 0
859 80 0
860 57 0
861 80 0
862 27 0
863 47 0
864 4 0
865 86 0
866 70 0
867 45 0
868 84 0
869 61 0
870 27 0
871 45 0
872 74 0
873 5 0
874 41 0
875 31 0
876 47 47
877 30 0
878 20 0
879 60 0
880 46 0
881 31 0
882 2 2
883 71 0
884 42 0
885 26 0
886 72 0
887 25 25
888 36 0
889 36 0
890 31 0
891 38 0
892 64 0
893 73 0
894 74 0
895 29 0
896 26 0
897 45 0
898 57 0
899 75 0
900 67 0
901 36 0
902 57 0
903 20 0
904 36 0
905 76 0
906 77 0
907 69 0
908 22 0
909 42 0
910 78 0
911 86 0
912 30 0
913 27 0
914 31 0
915 25 0
916 1 0
917 84 84
918 20 0
919 26 0
920 31 0
921 3 0
922 1 0
923 29 0
924 30 0
925 79 0
926 26 0
927 86 0
928 42 0
929 26 0
930 13 0
931 30 0
932 59 0
933 31 0
934 80 80
935 81 0
936 26 0
937 67 0
938 9 0
939 14 0
940 1 0
941 57 0
942 31 0
943 60 0
944 82 0
945 17 0
946 83 0
947 84 0
948 47 0
949 84 84
950 83 0
951 65 0
952 25 0
953 60 0
954 31 31
955 74 0
956 70 0
957 3 0
958 83 0
959 13 0
960 84 84
961 26 0
962 64 0
963 72 0
964 85 0
965 80 0
966 47 0
967 86 0
968 30 0
969 78 0
970 41 0
971 5 0
972 45 0
973 80 0
974 27 0
975 31 0
976 46 0
977 1 0
978 47 47
979 13 0
980 30 0
981 47 0
982 86 0
983 1 0
984 57 0
985 50 0
986 25 0
987 84 0
988 20 0
989 59 0
990 84 0
991 1 1
992 80 0
993 15 0
994 69 0
995 36 0
996 47 0
997 57 0
998 79 0
999 54 0
1000 84 0
